\ Model Cutting Stock Problem with Minimum Waste Constraint
\ LP format - for model browsing. Use MPS format to capture full model detail.
Minimize
  103791.3366284374 x[0] + 6151.573137743519 x[1] + 14289.39106122844 x[2]
   + 109709.4743336153 x[3] + 9070.861547689012 x[4]
Subject To
 R0: 103791.3366284374 x[0] + 6151.573137743519 x[1]
   + 14289.39106122844 x[2] + 109709.4743336153 x[3]
   + 9070.861547689012 x[4] <= 1.3846914336449478e+07
 R1: x[0] >= 67.84902636932324
 R2: x[1] >= 7.840861273595599
 R3: x[2] >= 56.93994570843601
 R4: x[3] >= 72.70876155661622
 R5: x[4] >= 52.1568961562127
 R6: - 103791.3366284374 x[0] - 6151.573137743519 x[1]
   - 14289.39106122844 x[2] - 109709.4743336153 x[3]
   - 9070.861547689012 x[4] >= -1.3846914336449478e+07
Bounds
End
